p cnf 997 81
168 0
175 0
225 0
231 0
318 0
419 0
444 0
465 0
493 0
689 0
692 0
727 0
732 0
828 0
886 0
956 0
961 0
973 0
114 0
126 0
137 0
143 0
159 0
182 0
191 0
212 0
247 0
254 0
266 0
279 0
283 0
298 0
323 0
339 0
341 0
355 0
362 0
377 0
384 0
396 0
422 0
436 0
451 0
478 0
487 0
517 0
521 0
538 0
549 0
552 0
563 0
576 0
585 0
594 0
613 0
624 0
635 0
646 0
658 0
667 0
671 0
716 0
748 0
753 0
769 0
774 0
781 0
795 0
811 0
833 0
845 0
857 0
864 0
872 0
899 0
915 0
929 0
934 0
942 0
988 0
997 0
